c turning on binary mode checking
c parsing input formula with 202048 variables and 780990 clauses
c finished parsing, read 2217657 bytes from proof file
c detected empty clause; start verification via backward checking
c 5827 of 780990 clauses in core                            
c 2076 of 89886 lemmas in core using 60869 resolution steps
c 0 RAT lemmas in core; 599 redundant literals in core lemmas
s VERIFIED
c verification time: 1.051 seconds
